1000 1544
1 2 3 4 5 6 7 8 9 10 11 12 13 14 15 16 17 18 19 20 21 22 23 24
0 25 26 27 28 29 30 31 32 33 34 35 36 37 38 39 40 41 42 43 44 45 46 47 48 49 50 51 52 53 54 55 56 57 58 59 60 61 62
0 4 16 24 63 64 65 66 67 68 69 70 71 72 73 74 75 76 77 78 79 80 81 82 83 84 85 86 87 88 89 90 91 92 93 94 95 96 97 98 99 100 101 102 103 104 105 106 107 108 109 110 111 112 113 114 115 116 117 118 119 120 121 122 123 124 125 126 127 128 129 130 131 132 133 134 135 136 137 138 139 140 141 142 143 144 145 146 147 148 149 150 151 152 153 154 155 156 157 158 159
0 39 160 161 162 163 164 165 166 167 168 169 170 171 172 173 174 175 176 177 178 179 180 181 182 183 184 185 186 187 188 189 190 191 192 193 194 195 196 197 198 199 200 201 202 203 204 205 206 207 208 209 210 211 212 213 214 215 216 217 218 219 220 221 222 223 224 225 226 227 228 229 230 231 232 233 234 235 236 237 238 239 240 241 242 243 244 245 246 247 248 249 250 251 252 253 254 255 256 257 258 259 260 261 262 263 264 265 266 267 268 269 270 271 272 273 274 275 276 277 278 279 280 281 282 283 284 285 286 287 288 289 290 291 292 293 294 295 296 297 298 299 300 301 302 303 304 305 306 307 308 309 310 311 312 313 314 315 316 317 318 319 320 321 322 323 324 325 326 327 328 329 330 331 332 333 334 335 336 337 338 339 340 341 342 343 344 345 346 347 348 349 350 351 352 353 354 355 356 357 358 359 360 361 362 363 364 365 366 367 368 369 370 371 372 373 374 375 376 377
0 2 16 20 378 379
0 21 380 381 382 383 384 385 386 387 388 389 390 391 392 393 394 395 396 397 398 399 400 401 402 403 404 405
0 406 407 408 409 410 411 412 413 414 415 416 417 418 419 420 421 422 423 424 425 426 427 428 429 430 431 432 433 434 435 436 437 438 439 440 441 442 443 444 445 446 447 448 449 450 451 452 453 454 455 456 457 458 459 460 461 462 463 464 465 466 467 468
0 370 371 469 470 471 472 473 474 475 476 477 478 479 480 481 482 483 484 485 486 487 488 489 490 491 492 493 494 495 496 497 498 499 500 501 502 503 504 505 506 507 508 509 510 511 512 513 514 515 516 517
0 172 501 518 519 520 521 522 523 524 525 526 527 528 529 530 531 532 533 534 535 536 537 538 539 540 541 542 543 544 545 546 547 548 549 550 551 552 553 554 555 556 557 558 559 560 561 562 563 564 565 566 567 568 569 570 571 572 573 574 575 576 577 578 579 580 581 582 583 584
0 173 204 242 303 342 344 349 350 585 586 587 588 589 590 591 592 593 594 595 596 597 598 599 600 601 602 603 604 605 606 607 608 609 610 611 612 613 614 615 616 617 618 619 620 621 622 623 624 625 626 627 628 629 630 631 632 633 634 635 636 637 638 639 640 641 642 643 644 645 646 647 648 649 650 651 652 653 654 655 656 657 658 659 660 661 662 663 664 665 666 667
0 668 669 670 671 672 673 674 675 676 677 678 679 680 681 682 683 684 685
0 686 687 688 689 690 691 692 693 694 695 696 697 698 699 700 701 702 703 704 705 706 707 708 709 710 711 712 713 714 715 716 717 718 719 720 721 722 723 724 725 726 727 728
0 189 729 730 731 732 733 734 735 736 737 738 739 740 741 742 743 744 745 746 747 748 749 750 751 752 753 754 755 756 757 758 759 760 761 762 763 764 765 766 767 768 769
0 38 670 770 771 772 773 774 775 776 777 778 779 780 781 782 783 784 785 786 787 788 789 790 791 792 793 794 795 796 797 798 799 800 801 802 803 804 805 806 807 808 809 810 811 812 813 814 815 816 817 818 819 820 821 822 823 824 825 826 827 828 829 830 831 832 833 834 835 836 837 838 839 840 841 842 843 844 845 846 847 848 849 850 851 852 853 854 855 856 857
0 858 859 860 861 862 863 864 865 866 867 868 869 870 871 872 873 874 875 876 877 878 879 880 881 882 883 884 885 886 887 888 889 890 891 892 893 894 895 896 897 898 899 900 901 902 903
0 364 371 503 904 905 906 907 908 909 910 911 912 913 914 915 916 917 918 919 920 921 922 923 924 925 926 927 928 929 930 931 932 933 934 935 936 937 938 939 940 941 942 943 944 945 946 947 948 949 950 951 952 953 954 955 956 957 958 959 960 961 962 963 964 965 966 967 968 969 970 971 972 973 974 975 976 977 978 979 980 981 982 983 984 985 986 987 988 989 990 991 992 993 994 995 996 997 998 999
0 2 4 20 22 91 114 159 577
0 45 373
0
0 45 553 642
0 4 16 24 73
0 5
0 16 24 378
0 26 221 428 438 747
0 2 20 22 73 80 101 120 142 151 378 379
1 27 48
1 23 33
1 25 48
1
1
1
1
1 734
1 26
1 48
1
1
1 427 438
1 13
1 3
1
1
1
1
1
1 17 19
1
1 53
1 25 27 34
1
1
1
1
1 47
1
1
1
1
1 990
1 559
1
1
1
2 136
2
2 746
2 88 111 114 141
2 118
2
2
2
2
2 696
2 20 24 80 378
2
2 97
2 91
2
2
2
2 24 73 142 378
2 110 111 114 125 126 138 143 159
2 108
2
2
2
2 100 142
2
2 66 114 159
2 142 523 525 749 759
2
2 16 76 106 118
2
2
2 103 110 117
2 540
2
2 75 134
2 111 159
2 104
2 86 111 118 122
2 24 151
2
2 94 110 111 142 378
2 99 110 111 114 123 148 158 159 378 991
2
2 91 111 118
2
2 82 111 117
2 122 142
2 81 94 103 104 111 114 117 125 147 159
2 66 81 98 100 103 104 106 108 110 115 117 118 122 126 134 144 145 158
2
2 144
2 16 66 81 88 104 110 117 144 158
2 111
2
2 94 108 110 111 114 118 147 159
2 67 91 100 106 111 117 122 128 144
2
2 24
2 971 975
2 100 109 111 118
2 104
2
2 81 110 166
2 81 111 140 159
2
2 118
2 140 148
2
2
2
2 807
2 97 111 145 908
2
2 63
2
2 81
2
2 126 129
2 66
2 24 80 86 89 103 109 378
2 81
2 111 113 114 118
2 111 134 924
2
2 110 117
2 104 129
2
2
2 24 101 378
2
2
2
2
2
2 170
2 104 111 114 159
2 16 81 88 98 104 110 117 126 158
3
3
3
3 164 176 177 260 285
3 163 222 276
3
3 125
3 460
3 171 490 653
3 173
3 157 248
3 168
3 8
3 9 169 595 610 635
3 181 203 239 296 313 366 503
3
3 163
3 163
3 801
3 264
3 306 343
3 174 203 239 282 296 313 373
3 261
3 258
3
3
3
3 371
3
3 12
3
3
3
3
3
3
3
3
3
3 792
3
3 263 269
3
3 174 181 239 280 282 296 313 342 373
3 9
3
3
3 251 261
3 344 672
3
3
3
3 337 348
3
3
3 591 635
3
3 275 291 302
3
3
3
3 23 370
3 164 276
3 276 357
3 326 907
3 425
3
3 256
3 242 596
3
3 345
3
3
3 338
3 281
3 323
3
3 291 627
3 272 595
3 174 181 203 257 282 291 296 313 591
3 241
3 240
3 9 228 596
3
3
3
3
3 301 311
3 170
3
3
3 207
3
3
3
3 261
3 227
3 239 282 296 313 355 609
3 183
3
3 163
3 182 207 255 300 619
3
3 201 269
3 179 649
3
3
3
3
3 201 263
3 981
3
3 238 786
3 295
3
3 217
3 164 222 223
3
3
3
3 203 296 313
3 234 602
3 181 203 239 257 283 291 292 296 313 591
3 282 296 342 355 468 765
3 675
3 163 369
3
3
3 311
3
3
3 217 237 239 282 292
3 282 291 313
3
3 306
3 273
3 174 181 203 239 257 280 282 283 313 342 355 609 635
3
3
3 981
3 261
3 247
3 217
3 9
3
3
3 180 294
3 335 341 357 373 376
3
3
3 634
3 247 288 609
3
3 174 181 203 239 257 280 282 292 296 355 376
3
3
3
3
3
3
3
3
3
3 235
3
3
3 224
3 834
3
3
3
3
3
3 460
3
3 307
3
3 212
3 233
3
3
3 307
3 9 203 283 296 381 588 595 617
3 180
3 9 208 356 786
3 230
3
3
3 212
3 9
3 9
3
3
3
3
3 257 283 296 313 602
3 344 357
3 223 307 356
3
3
3
3
3
3
3 15 696
3
3 174
3
3
3 285 786
3 7 221
3 7 15 187
3
3 17 181 203 307
3 786
3
3 307 313
3
4 22 24 73 80 103 104 142 151 379 905
4 24 378
5
5 342
5 388 394
5 388
5 530
5 388
5 391
5
5 382 383 385 389 394 395 396 397 404 405
5 388
5
5 386
5
5 520
5 382 388 402
5 388
5 388
5 388 398 404
5 397
5
5
5
5 394
5
5 388 397
5 388
6
6
6
6 411
6 440 443 450 463 749
6 409 467
6
6
6
6
6 426 440 450 737
6
6
6
6
6
6
6 752
6 453
6 225
6 416
6 37 438
6 23
6
6
6
6
6 440 443 450 463
6
6 440 749
6
6
6 23 37 427
6
6 410 416 433 435 443 449 450 463 466 749
6
6
6 410 433 440 450 463 749
6 456
6
6
6 450 459
6
6 440
6 410 416 433 440 443 447 749
6
6 461
6 424
6
6
6 444
6
6
6 447
6 167 333 610
6 452 466 742
6
6 410 433 440 443
6
6 620 742
6 440 461 749
6 411
6 283
7 507
7
7 873
7 810
7
7
7
7 517
7
7
7
7
7
7
7
7
7
7
7
7
7
7 168
7
7
7
7
7
7
7 898
7
7 808
7
7 8
7
7 15 174
7
7
7
7 469
7
7
7
7
7
7
7
7
7
7 476
8
8
8 393
8
8
8 89
8
8 89
8
8
8
8
8 384
8
8
8
8
8
8
8
8
8
8 95
8
8
8
8
8
8
8
8
8
8
8
8
8 19
8
8 565
8
8
8
8 59
8
8
8
8
8
8 555
8
8
8 857
8
8
8
8
8
8
8
8
8 16
8
8
8
8
8
8
8
9
9 633 635 981
9
9 342 592 602 617
9 650
9
9 215 239 282 606 635
9 588 595 617 650
9
9
9 173 238 342 592 610 635
9 228 242
9 598 635 650
9 597 650
9
9
9 939
9 281 355 588 617
9
9
9
9 591 942
9
9
9 257 296 311 619 635
9 173 460 595 635
9
9
9
9
9
9 649
9 342 588 592 602
9
9 261 609
9 465
9
9
9
9
9
9
9 237
9
9
9
9
9
9 586
9 310
9 173 215 296 586 591 595 597 609 610
9
9
9
9
9
9
9 19
9
9
9
9
9
9
9 264 616 654
9 589 592 597 598
9
9 670 952
9 168
9 649
9
9
9
9
9
9
9
9
9
9
9
9
9
10
10
10 13 652
10
10 208
10
10
10 284
10 684
10
10
10
10
10
10
10
10 676
10
11
11
11
11 692 712 717 719 723
11 698
11
11 689 712
11 698
11 722
11 712
11 72 364 703 704 807 849
11 703
11 690 693
11
11
11
11 728
11 696 697 704
11 696 703
11
11 725
11
11 724
11
11
11
11 689 692 695 713 719 723
11 712 719
11
11
11
11 689 719
11
11 689 712 713 717 723
11 725 728
11
11 694
11 689 712 719
11 708
11 706 720 727 728
11
11 725 728
11 702 720 725 727
12
12
12
12
12
12 32
12 742 752
12
12 416
12
12
12 768
12 862
12 461 465 735
12
12
12
12 65
12 23 817
12
12 89 410 435 440 443 450 466
12
12
12 423 735
12
12
12
12
12
12
12 89
12
12
12
12
12 857
12 283
12
12
12 740
12
13 786 793 823 855
13
13
13 791
13 855
13 853
13
13 793 845 856
13
13
13 783 785 789 846 847 856
13 808
13
13 780 789 825 846
13
13 780 789
13 272 344 369 374 770
13
13
13 780 783 785 846 856
13 848
13 773 795 837 855
13 199 796 841 847
13 770 777 820 845 855 856
13 839
13 791 836
13 792
13
13 851
13
13 836
13 178
13
13
13 805 806 811 837
13 804 816 836 855
13 804
13 133 696 816 840
13 499 781
13 819
13 472 813
13 804 847
13 817 819
13 810 831
13 819 836
13 821
13 805 807 847
13 747 812
13
13 809 812 814
13 793
13 815 843 848
13
13 770 840 848 857 991
13 830
13 783
13
13
13
13
13 824
13 813
13
13
13 327
13
13 795 800 805 814 853
13 791 804 841 853
13
13 794 857
13 807 823
13 792 837 843
13
13 821 841
13 851 995
13 777 793 855
13 780 783 789
13 780 792 811 816
13 790 821 823 857
13 696
13
13 798 844 852
13 851 854
13 775 836 837
13 852
13 770 774 791 793 805 845 856
13 777 780 789 793 855
13 568 764 823 839 848
14
14
14 865 874 880 899
14
14 741 865 873
14
14
14 860 862 866 874 888 899
14 865 880 895 899
14
14
14
14
14
14
14 471 862 878
14 860 865 888 899
14
14
14
14 873 888
14
14 860 866 899
14
14
14
14
14
14
14
14 865 874 878 899
14
14 901
14
14
14
14
14 866 899
14
14
14 497
14 860 865 866 874 880 888 895
14
14 890
14
14
15
15 378
15
15 224
15 134
15
15
15
15
15
15
15
15
15
15
15
15
15
15
15
15 145
15
15
15
15
15
15
15
15
15
15
15
15
15
15
15 601
15
15
15 606
15
15
15
15
15
15
15
15
15
15 652
15
15
15
15
15
15
15
15
15
15
15
15
15
15
15
15
15
15
15 121 975
15
15
15
15 121 971
15
15
15
15
15
15 270 299 586
15
15
15
15
15
15
15
15
15 58
15 104 823
15
15
15
15 844
15
15
15
15
